problems/csplib-prob056/sonet-models/noch/O2/minion/model_3_1-s2ring05-solution000001.eprime-solution
language ESSENCE' 1.0

letting network_ExplicitWithFlagsR5_Flags be [1, 1, 1, 1, 1, 1; int(1..6)]
letting network_ExplicitWithFlagsR5_Values_ExplicitVarSizeWithMarker_Marker be [0, 1, 2, 3, 5, 5; int(1..6)]
letting network_ExplicitWithFlagsR5_Values_ExplicitVarSizeWithMarker_Values be
        [[1, 1, 1, 1, 1; int(1..5)], [1, 1, 1, 1, 1; int(1..5)], [1, 7, 1, 1, 1; int(1..5)], [2, 5, 6, 1, 1; int(1..5)],
         [1, 3, 5, 8, 10; int(1..5)], [4, 6, 7, 9, 10; int(1..5)]; int(1..6)]
