problems/csplib-prob056/sonet-models/noch/O2/minion/model_3_1-s2ring05-solution000001.solution
language Essence 1.3

letting network be mset({}, {1}, {1, 3, 5, 8, 10}, {1, 7}, {2, 5, 6}, {4, 6, 7, 9, 10})
$ Visualisation for network
$ 
$  1
$  1  3  5  8 10
$  1  7
$  2  5  6
$  4  6  7  9 10

